
******************************************************************************
This program contains Ipopt, a library for large-scale nonlinear optimization.
 Ipopt is released as open source code under the Eclipse Public License (EPL).
         For more information visit http://projects.coin-or.org/Ipopt
******************************************************************************

This is Ipopt version 3.12.12, running with linear solver mumps.
NOTE: Other linear solvers might be more efficient (see Ipopt documentation).

Number of nonzeros in equality constraint Jacobian...:   235810
Number of nonzeros in inequality constraint Jacobian.:    37800
Number of nonzeros in Lagrangian Hessian.............:   185401

Total number of variables............................:    34210
                     variables with only lower bounds:        0
                variables with lower and upper bounds:    18010
                     variables with only upper bounds:        0
Total number of equality constraints.................:    34210
Total number of inequality constraints...............:    12600
        inequality constraints with only lower bounds:        0
   inequality constraints with lower and upper bounds:        0
        inequality constraints with only upper bounds:    12600

iter    objective    inf_pr   inf_du lg(mu)  ||d||  lg(rg) alpha_du alpha_pr  ls
   0  9.9999900e-03 6.90e-01 1.00e+00   0.0 0.00e+00    -  0.00e+00 0.00e+00   0
MUMPS returned INFO(1) = -9 and requires more memory, reallocating.  Attempt 1
  Increasing icntl[13] from 1000 to 2000.
MUMPS returned INFO(1) = -9 and requires more memory, reallocating.  Attempt 2
  Increasing icntl[13] from 2000 to 4000.
   1  2.6450902e-01 4.36e-01 2.48e+01  -0.5 1.03e+00    -  2.73e-02 3.68e-01f  1
   2  5.4496938e-01 3.87e-01 2.21e+01  -1.2 2.47e+00    -  9.71e-02 1.14e-01f  1
   3  9.9544970e-01 3.46e-01 1.94e+01  -0.4 4.25e+00    -  1.26e-01 1.06e-01f  1
   4  9.9995451e-01 3.38e-01 1.90e+01  -2.0 9.39e-01    -  2.04e-01 2.08e-02h  1
   5  9.9265441e-01 3.81e-01 1.33e+02  -0.2 2.18e+00    -  9.88e-01 3.04e-01f  1
   6  9.9261641e-01 1.58e-01 7.05e+01   0.1 2.03e+00    -  1.00e+00 9.03e-01f  1
   7  9.9111286e-01 1.01e-01 5.04e+02   0.3 2.64e+01    -  5.55e-01 6.35e-01h  1
   8  9.9775167e-01 1.08e-01 3.75e+02   0.5 4.71e+01    -  5.25e-01 5.01e-01f  1
   9  9.9719664e-01 1.01e-01 5.86e+02   0.7 1.55e+03  -2.0 3.52e-02 6.85e-02h  1
iter    objective    inf_pr   inf_du lg(mu)  ||d||  lg(rg) alpha_du alpha_pr  ls
  10  9.9718089e-01 1.00e-01 1.28e+04   0.6 2.92e+02    -  1.00e+00 3.62e-03h  1
  11  9.9731027e-01 2.59e-02 1.42e+03   0.4 2.21e-01    -  9.73e-01 8.63e-01h  1
  12  9.9997311e-01 1.64e-02 1.02e+03  -5.6 1.38e+01    -  1.40e-02 4.30e-01h  1
  13  9.9638393e-01 1.64e-02 2.38e+05   1.4 6.60e+02    -  1.00e+00 1.62e-01f  1
  14  9.9657687e-01 1.41e-02 1.79e+05  -4.6 3.28e+02   0.2 2.54e-01 1.42e-01h  1
  15  9.9658324e-01 1.40e-02 1.15e+05   0.8 2.06e+02    -  7.79e-01 2.26e-03h  1
  16  9.9828290e-01 4.06e-03 5.53e+04  -5.0 9.00e-02    -  4.61e-01 1.00e+00h  1
  17  9.9999305e-01 2.16e-03 3.09e+04  -0.3 1.32e-01    -  1.20e-01 4.92e-01h  1
  18  9.9995730e-01 5.13e-04 1.44e+04  -0.2 1.59e-01    -  3.94e-01 1.00e+00h  1
  19  9.9991143e-01 5.11e-04 4.15e+03   0.3 5.68e-02    -  8.87e-01 1.00e+00f  1
iter    objective    inf_pr   inf_du lg(mu)  ||d||  lg(rg) alpha_du alpha_pr  ls
  20  9.9985544e-01 7.95e-04 7.90e+01   0.5 2.39e+00    -  1.00e+00 1.00e+00f  1
  21  9.9990021e-01 3.65e-04 2.57e+01   0.4 1.64e+00    -  1.00e+00 1.00e+00h  1
  22  9.9992963e-01 3.59e-04 7.57e+01   0.3 7.85e-02    -  9.75e-01 1.00e+00h  1
  23  9.9992964e-01 3.60e-04 3.53e+03   0.2 1.38e+02   0.7 6.64e-02 5.02e-04H  1
  24  9.9989889e-01 5.16e-04 4.67e+01   0.5 9.61e-01    -  1.00e+00 1.00e+00f  1
  25  9.9991470e-01 3.55e-04 3.45e+01   0.4 3.11e-01    -  1.00e+00 1.00e+00h  1
  26  9.9997107e-01 3.50e-04 2.94e+03  -0.3 2.48e+00    -  2.02e-01 9.06e-01H  1
  27  9.9990403e-01 5.99e-04 1.39e+02   0.5 2.35e+00   1.1 1.00e+00 1.00e+00f  1
  28  9.9992795e-01 3.79e-04 1.07e+01   0.4 2.96e-01   1.5 1.00e+00 1.00e+00h  1
  29  9.9996969e-01 3.64e-04 2.13e+03   0.0 1.33e+01   1.0 4.26e-01 1.00e+00H  1
iter    objective    inf_pr   inf_du lg(mu)  ||d||  lg(rg) alpha_du alpha_pr  ls
  30  9.9999237e-01 3.47e-04 4.64e+02  -0.7 6.97e+00   1.5 9.76e-01 8.50e-01H  1
  31  9.9995917e-01 4.53e-04 6.69e+02   0.1 1.83e+01   1.0 1.00e+00 1.00e+00f  1
  32  9.9996922e-01 3.31e-04 1.80e+02   0.1 7.07e+00   1.4 1.00e+00 1.00e+00h  1
  33  9.9991725e-01 5.92e-04 1.57e+03   0.6 4.40e+01   0.9 1.00e+00 7.40e-01f  1
  34  9.9992422e-01 4.46e-04 3.44e+03   0.4 5.70e+01    -  2.58e-04 5.00e-01h  2
  35  9.9995976e-01 3.25e-04 6.14e+02  -0.3 1.21e+01   1.4 7.72e-01 5.29e-01h  1
  36  9.9997868e-01 3.03e-04 8.26e+02  -1.0 7.74e+01   0.9 3.30e-01 4.15e-01h  1
  37  9.9999627e-01 3.20e-04 1.69e+03  -1.0 1.44e+01   1.3 1.00e+00 7.63e-01h  1
  38r 9.9999627e-01 3.20e-04 1.00e+03  -1.0 0.00e+00   0.8 0.00e+00 4.33e-07R 21
  39r 9.9992152e-01 4.81e-04 6.77e+01  -1.1 4.39e+00    -  9.34e-01 9.54e-01f  1
iter    objective    inf_pr   inf_du lg(mu)  ||d||  lg(rg) alpha_du alpha_pr  ls
  40r 9.9988620e-01 5.33e-04 1.24e+02  -2.0 2.21e+01    -  4.73e-01 8.11e-01f  1
  41r 9.9985063e-01 6.65e-04 1.21e+02  -2.1 8.71e+01    -  5.58e-01 7.30e-01f  1
  42r 9.9985301e-01 6.70e-04 2.90e+02  -2.8 1.11e+01    -  6.27e-01 5.72e-02f  1
  43r 9.9990028e-01 7.51e-04 1.04e+02  -2.9 9.25e-02    -  4.82e-01 5.47e-01f  1
  44r 9.9995681e-01 8.89e-04 8.83e+01  -3.1 3.79e-02    -  6.28e-01 7.79e-01f  1
  45r 9.9996421e-01 1.75e-03 3.11e+02  -2.9 6.34e-02    -  3.64e-01 1.00e+00f  1
  46r 9.9995883e-01 3.17e-03 2.14e+02  -2.9 4.65e-02    -  4.74e-01 1.00e+00f  1
  47r 9.9995623e-01 3.45e-03 8.93e+01  -2.6 3.66e-01    -  7.37e-01 8.12e-02f  1
  48r 9.9995997e-01 5.34e-03 3.55e+01  -2.9 7.27e-03    -  6.07e-01 9.02e-01f  1
  49r 9.9996433e-01 6.68e-03 1.11e-03  -2.9 5.91e-03    -  1.00e+00 1.00e+00f  1
iter    objective    inf_pr   inf_du lg(mu)  ||d||  lg(rg) alpha_du alpha_pr  ls
  50r 9.9997672e-01 6.70e-03 3.49e+01  -3.1 1.01e-01    -  4.18e-01 9.85e-01f  1
  51r 9.9997671e-01 6.70e-03 2.14e+02  -2.8 1.89e+03    -  3.32e-02 7.66e-05f  1
  52r 9.9997699e-01 6.68e-03 2.10e+02  -3.2 2.78e-01    -  1.38e-02 7.57e-02f  1
  53r 9.9997174e-01 7.20e-03 1.69e+02  -2.9 6.88e-02    -  2.35e-01 3.24e-01f  1
  54r 9.9997570e-01 6.84e-03 9.95e+01  -3.1 4.51e-02    -  3.43e-01 1.00e+00f  1
  55r 9.9997569e-01 6.84e-03 1.55e+02  -2.8 1.13e+02    -  2.43e-01 3.96e-04f  1
  56r 9.9998000e-01 6.62e-03 9.93e+01  -3.2 4.30e-02    -  3.05e-01 1.00e+00f  1
  57r 9.9997999e-01 6.62e-03 2.24e+02  -2.9 8.04e+01    -  9.31e-01 5.35e-04f  1
  58r 9.9998035e-01 6.59e-03 1.10e+02  -3.2 1.42e-02    -  5.22e-01 7.60e-01f  1
  59r 9.9996848e-01 7.69e-03 1.93e+02  -2.9 3.07e+01    -  1.12e-01 7.31e-01f  1
iter    objective    inf_pr   inf_du lg(mu)  ||d||  lg(rg) alpha_du alpha_pr  ls
  60r 9.9997450e-01 7.03e-03 2.40e+01  -3.1 2.98e+00  -2.0 8.59e-01 1.00e+00f  1
  61r 9.9997602e-01 7.17e-03 1.78e+01  -3.1 5.31e+00  -2.5 6.97e-01 1.00e+00f  1
  62r 9.9997626e-01 7.17e-03 5.49e-01  -3.1 1.72e+01  -3.0 1.00e+00 1.00e+00f  1
  63r 9.9997766e-01 7.11e-03 4.70e+00  -3.1 5.34e+01  -3.4 1.00e+00 1.00e+00f  1
  64r 9.9997898e-01 7.06e-03 1.08e+02  -3.1 1.18e+03    -  8.25e-02 4.95e-02f  1
  65r 9.9997897e-01 7.06e-03 5.54e+01  -3.1 2.12e+00    -  1.00e+00 2.23e-02f  1
  66r 9.9997876e-01 7.06e-03 5.69e-03  -3.1 4.40e-02    -  1.00e+00 1.00e+00f  1
  67r 9.9998400e-01 6.74e-03 1.23e+01  -4.6 1.66e-01    -  4.28e-01 2.66e-01f  1
  68r 9.9998975e-01 7.04e-03 1.43e+01  -3.6 1.34e-02    -  1.00e+00 6.14e-01f  1
  69r 9.9999261e-01 6.35e-03 1.42e-03  -3.6 1.26e-02    -  1.00e+00 1.00e+00f  1
iter    objective    inf_pr   inf_du lg(mu)  ||d||  lg(rg) alpha_du alpha_pr  ls
  70r 9.9999478e-01 6.27e-03 3.65e+00  -4.4 1.94e-02    -  2.45e-01 3.43e-01f  1
  71r 9.9999491e-01 7.95e-03 1.43e-03  -3.7 1.71e-02    -  1.00e+00 1.00e+00f  1
  72r 9.9999690e-01 1.35e-02 1.80e+00  -9.7 3.18e-02    -  2.29e-01 3.85e-01f  1
  73r 9.9999733e-01 1.47e-02 1.07e+01  -5.0 7.72e-03    -  1.00e+00 1.50e-01f  1
  74r 9.9999932e-01 1.99e-02 3.95e-04  -4.6 1.79e-02    -  1.00e+00 1.00e+00f  1
  75r 9.9999973e-01 2.10e-02 1.46e+01  -5.8 1.95e-02    -  9.45e-01 6.25e-01f  1
  76r 9.9999981e-01 2.12e-02 3.18e+01 -10.3 1.29e-02    -  4.94e-01 3.11e-01f  1
  77r 9.9999996e-01 2.16e-02 4.34e+01  -6.8 4.62e-03    -  1.00e+00 7.79e-01f  1
  78r 1.0000000e+00 2.18e-02 2.38e+01  -6.8 1.73e-02    -  9.14e-01 9.86e-01f  1
  79r 1.0000000e+00 2.18e-02 1.86e+02  -7.4 2.91e-03    -  1.00e+00 7.53e-01f  1
iter    objective    inf_pr   inf_du lg(mu)  ||d||  lg(rg) alpha_du alpha_pr  ls
  80r 1.0000000e+00 2.18e-02 6.39e+01  -7.4 8.36e-04    -  1.00e+00 8.79e-01f  1
  81r 1.0000000e+00 2.18e-02 6.67e+01  -7.6 1.00e-03    -  1.00e+00 7.65e-01f  1
  82r 1.0000000e+00 2.18e-02 4.10e+01  -7.7 4.39e-04    -  1.00e+00 8.07e-01f  1
  83r 1.0000000e+00 2.18e-02 2.82e+01  -7.9 6.80e-04    -  1.00e+00 8.30e-01f  1
  84r 1.0000000e+00 2.18e-02 1.36e+01  -8.0 4.81e-04    -  1.00e+00 8.97e-01f  1
  85r 1.0000000e+00 2.18e-02 2.44e+01  -8.1 6.03e-04    -  1.00e+00 8.07e-01f  1
  86r 1.0000000e+00 2.18e-02 1.56e+01  -8.2 2.50e-04    -  1.00e+00 8.86e-01f  1
  87r 1.0000000e+00 2.18e-02 7.57e+01  -8.4 8.00e-04    -  1.00e+00 6.54e-01f  1
  88r 1.0000000e+00 2.18e-02 8.05e+01  -8.6 3.39e-04    -  1.00e+00 7.01e-01f  1
  89r 1.0000000e+00 2.18e-02 1.55e+02  -8.8 6.90e-04    -  1.00e+00 5.85e-01f  1
iter    objective    inf_pr   inf_du lg(mu)  ||d||  lg(rg) alpha_du alpha_pr  ls
  90r 1.0000000e+00 2.18e-02 4.10e+01  -8.9 4.56e-04    -  1.00e+00 9.36e-01f  1
  91r 1.0000000e+00 2.18e-02 4.55e+01  -9.1 5.14e-04    -  1.00e+00 8.32e-01f  1
  92r 1.0000000e+00 2.18e-02 7.66e+01  -9.3 3.31e-04    -  1.00e+00 7.23e-01f  1
  93r 1.0000000e+00 2.18e-02 1.43e+02  -9.5 4.20e-04    -  1.00e+00 6.11e-01f  1
  94r 1.0000000e+00 2.18e-02 9.79e+01  -9.6 2.77e-04    -  1.00e+00 5.80e-01f  1
  95r 1.0000000e+00 2.18e-02 3.55e+01  -9.8 3.67e-04    -  1.00e+00 8.24e-01f  1
  96r 1.0000000e+00 2.18e-02 2.59e-07  -9.9 1.15e-04    -  1.00e+00 1.00e+00h  1
  97r 1.0000000e+00 2.18e-02 4.45e-07 -10.1 2.70e-04    -  1.00e+00 1.00e+00h  1
  98r 1.0000000e+00 2.18e-02 8.35e+01 -10.3 2.09e-04    -  1.00e+00 4.95e-01h  1
  99r 1.0000000e+00 2.18e-02 4.45e-09 -10.3 5.32e-05    -  1.00e+00 1.00e+00f  1

Number of Iterations....: 99

                                   (scaled)                 (unscaled)
Objective...............:   1.0000000099986892e+00    1.0000000099986892e+00
Dual infeasibility......:   9.9999999997358202e-01    9.9999999997358202e-01
Constraint violation....:   2.1770273611143864e-02    2.1770273611143864e-02
Complementarity.........:   5.1867701793112392e-11    5.1867701793112392e-11
Overall NLP error.......:   2.1770273611143864e-02    9.9999999997358202e-01


Number of objective function evaluations             = 130
Number of objective gradient evaluations             = 40
Number of equality constraint evaluations            = 130
Number of inequality constraint evaluations          = 130
Number of equality constraint Jacobian evaluations   = 102
Number of inequality constraint Jacobian evaluations = 102
Number of Lagrangian Hessian evaluations             = 100
Total CPU secs in IPOPT (w/o function evaluations)   =    515.865
Total CPU secs in NLP function evaluations           =    157.493

EXIT: Converged to a point of local infeasibility. Problem may be infeasible.
